results/res_prop_muc/res_Cimatti_mathsat_cores/QF_LRA/pursuit-safety-4.smt.smt2.res
unsat
( c107
  c108
  c118
  c120
  c124
  c134
  c138
  c139
  c144
  c146
  c147
  c148
  c149
  c167
  c173
  c174
  c178
  c182
  c187
  c188
  c189
  c191
  c200
  c202
  c205
  c207
  c209
  c210
  c211
  c212
  c213
  c214
  c22
  c229
  c232
  c233
  c24
  c246
  c247
  c260
  c261
  c273
  c274
  c285
  c291
  c299
  c302
  c311
  c314
  c315
  c326
  c33
  c330
  c332
  c335
  c339
  c340
  c341
  c342
  c343
  c345
  c350
  c354
  c355
  c356
  c358
  c367
  c369
  c372
  c374
  c376
  c377
  c378
  c379
  c38
  c380
  c381
  c382
  c388
  c393
  c40
  c400
  c414
  c42
  c428
  c43
  c44
  c441
  c45
  c458
  c466
  c471
  c478
  c481
  c497
  c506
  c507
  c508
  c509
  c511
  c512
  c521
  c522
  c523
  c525
  c534
  c539
  c54
  c540
  c541
  c543
  c544
  c545
  c546
  c547
  c555
  c567
  c578
  c58
  c582
  c584
  c587
  c588
  c589
  c590
  c591
  c592
  c66
  c67
  c8
  c80
  c81
  c9
  c94
  c95
  c98 )
